num_days = 1;
num_periods_day = 16;
num_evs = 10;
max_charge = 25; %kW
total_energy = 20; %kWh
wholesale_prices = array2d(1..num_days, 1..num_periods_day,
[61.91,
68.74,
82.17,
83.75,
77.12,
86.14,
87.01,
91.69,
73.69,
76.56,
90.17,
74.1,
85.25,
95.29,
86.73,
84.49]);
network_tariff = 15; 
existing_loads = array2d(1..num_days, 1..num_periods_day,
[
61.3573525,
61.6972539,
61.52215318,
62.34615657,
62.20195597,
62.42855691,
62.17105585,
62.09895555,
61.6251536,
60.4097486,
60.11104737,
54.70352512,
37.35825374,
43.5691793,
65.35376895,
59.35914428,
]);